p edge 48 118
e 1 14
e 1 15
e 1 16
e 1 17
e 1 18
e 2 14
e 2 17
e 2 22
e 2 25
e 2 26
e 2 27
e 3 14
e 3 25
e 3 32
e 3 33
e 4 48
e 5 6
e 5 14
e 5 42
e 5 46
e 6 14
e 6 42
e 6 46
e 7 14
e 7 43
e 8 14
e 8 44
e 9 14
e 9 45
e 10 30
e 10 31
e 10 47
e 10 48
e 11 39
e 11 48
e 12 40
e 12 48
e 13 41
e 13 48
e 14 15
e 14 16
e 14 17
e 14 18
e 14 19
e 14 21
e 14 22
e 14 23
e 14 25
e 14 26
e 14 27
e 14 28
e 14 32
e 14 33
e 14 34
e 14 35
e 14 36
e 14 37
e 14 42
e 14 43
e 14 44
e 14 45
e 14 46
e 14 47
e 15 16
e 15 17
e 16 17
e 16 18
e 16 19
e 16 21
e 16 22
e 16 23
e 16 47
e 17 18
e 17 19
e 17 21
e 17 22
e 17 23
e 17 25
e 17 26
e 17 27
e 17 28
e 17 47
e 19 21
e 20 48
e 22 23
e 22 25
e 22 26
e 22 27
e 22 47
e 23 47
e 24 47
e 24 48
e 25 26
e 25 27
e 25 28
e 25 32
e 25 47
e 26 27
e 26 47
e 28 47
e 29 47
e 29 48
e 30 31
e 30 47
e 30 48
e 31 47
e 31 48
e 32 33
e 32 47
e 34 35
e 34 36
e 35 36
e 38 48
e 39 48
e 40 48
e 41 48
e 42 46
e 47 48
